NAME 
ROWS
 N  OBJ
 L  ULC[0]  
 L  ULC[1]  
 L  ULC[2]  
 L  ULC[3]  
 L  ULC[4]  
 L  LLC[0]  
 L  LLC[1]  
 L  LLC[2]  
 L  LLC[3]  
 L  LLC[4]  
COLUMNS
    MARKER    'MARKER'                 'INTORG'
    X[0]      OBJ       -19
    X[0]      ULC[0]    65
    X[0]      ULC[1]    30
    X[0]      ULC[2]    88
    X[0]      ULC[3]    48
    X[0]      ULC[4]    93
    X[0]      LLC[0]    6
    X[0]      LLC[1]    26
    X[0]      LLC[2]    31
    X[0]      LLC[3]    33
    X[0]      LLC[4]    97
    X[1]      OBJ       -28
    X[1]      ULC[0]    73
    X[1]      ULC[1]    100
    X[1]      ULC[2]    49
    X[1]      ULC[3]    73
    X[1]      ULC[4]    39
    X[1]      LLC[0]    13
    X[1]      LLC[1]    84
    X[1]      LLC[2]    21
    X[1]      LLC[3]    89
    X[1]      LLC[4]    89
    X[2]      OBJ       21
    X[2]      ULC[0]    30
    X[2]      ULC[1]    10
    X[2]      ULC[2]    76
    X[2]      ULC[3]    44
    X[2]      ULC[4]    97
    X[2]      LLC[0]    18
    X[2]      LLC[1]    56
    X[2]      LLC[2]    68
    X[2]      LLC[3]    91
    X[2]      LLC[4]    98
    X[3]      OBJ       9
    X[3]      ULC[0]    44
    X[3]      ULC[1]    55
    X[3]      ULC[2]    30
    X[3]      ULC[3]    44
    X[3]      ULC[4]    35
    X[3]      LLC[0]    61
    X[3]      LLC[1]    47
    X[3]      LLC[2]    14
    X[3]      LLC[3]    34
    X[3]      LLC[4]    63
    X[4]      OBJ       49
    X[4]      ULC[0]    30
    X[4]      ULC[1]    54
    X[4]      ULC[2]    91
    X[4]      ULC[3]    98
    X[4]      ULC[4]    23
    X[4]      LLC[0]    30
    X[4]      LLC[1]    2
    X[4]      LLC[2]    91
    X[4]      LLC[3]    42
    X[4]      LLC[4]    52
    X[5]      OBJ       37
    X[5]      ULC[0]    93
    X[5]      ULC[1]    4
    X[5]      ULC[2]    53
    X[5]      ULC[3]    56
    X[5]      ULC[4]    65
    X[5]      LLC[0]    36
    X[5]      LLC[1]    11
    X[5]      LLC[2]    63
    X[5]      LLC[3]    46
    X[5]      LLC[4]    8
    X[6]      OBJ       21
    X[6]      ULC[0]    86
    X[6]      ULC[1]    55
    X[6]      ULC[2]    66
    X[6]      ULC[3]    92
    X[6]      ULC[4]    59
    X[6]      LLC[0]    54
    X[6]      LLC[1]    89
    X[6]      LLC[2]    35
    X[6]      LLC[3]    76
    X[6]      LLC[4]    42
    X[7]      OBJ       -9
    X[7]      ULC[0]    14
    X[7]      ULC[1]    87
    X[7]      ULC[2]    93
    X[7]      ULC[3]    64
    X[7]      ULC[4]    18
    X[7]      LLC[0]    9
    X[7]      LLC[1]    71
    X[7]      LLC[2]    2
    X[7]      LLC[3]    70
    X[7]      LLC[4]    50
    X[8]      OBJ       27
    X[8]      ULC[0]    90
    X[8]      ULC[1]    13
    X[8]      ULC[2]    15
    X[8]      ULC[3]    89
    X[8]      ULC[4]    87
    X[8]      LLC[0]    30
    X[8]      LLC[1]    60
    X[8]      LLC[2]    6
    X[8]      LLC[3]    59
    X[8]      LLC[4]    39
    X[9]      OBJ       10
    X[9]      ULC[0]    72
    X[9]      ULC[1]    37
    X[9]      ULC[2]    86
    X[9]      ULC[3]    36
    X[9]      ULC[4]    26
    X[9]      LLC[0]    22
    X[9]      LLC[1]    64
    X[9]      LLC[2]    24
    X[9]      LLC[3]    57
    X[9]      LLC[4]    59
    Y[0]      OBJ       33
    Y[0]      ULC[0]    40
    Y[0]      ULC[1]    6
    Y[0]      ULC[2]    28
    Y[0]      ULC[3]    11
    Y[0]      ULC[4]    19
    Y[0]      LLC[0]    16
    Y[0]      LLC[1]    41
    Y[0]      LLC[2]    47
    Y[0]      LLC[3]    33
    Y[0]      LLC[4]    56
    Y[1]      OBJ       -38
    Y[1]      ULC[0]    96
    Y[1]      ULC[1]    29
    Y[1]      ULC[2]    22
    Y[1]      ULC[3]    59
    Y[1]      ULC[4]    1
    Y[1]      LLC[0]    4
    Y[1]      LLC[1]    88
    Y[1]      LLC[2]    20
    Y[1]      LLC[3]    87
    Y[1]      LLC[4]    44
    Y[2]      OBJ       7
    Y[2]      ULC[0]    98
    Y[2]      ULC[1]    60
    Y[2]      ULC[2]    3
    Y[2]      ULC[3]    90
    Y[2]      ULC[4]    92
    Y[2]      LLC[0]    19
    Y[2]      LLC[1]    57
    Y[2]      LLC[2]    70
    Y[2]      LLC[3]    67
    Y[2]      LLC[4]    92
    Y[3]      OBJ       3
    Y[3]      ULC[0]    20
    Y[3]      ULC[1]    51
    Y[3]      ULC[2]    6
    Y[3]      ULC[3]    89
    Y[3]      ULC[4]    12
    Y[3]      LLC[0]    44
    Y[3]      LLC[1]    58
    Y[3]      LLC[2]    6
    Y[3]      LLC[3]    79
    Y[3]      LLC[4]    31
    Y[4]      OBJ       19
    Y[4]      ULC[0]    9
    Y[4]      ULC[1]    46
    Y[4]      ULC[2]    12
    Y[4]      ULC[3]    62
    Y[4]      ULC[4]    82
    Y[4]      LLC[0]    85
    Y[4]      LLC[1]    55
    Y[4]      LLC[3]    92
    Y[4]      LLC[4]    52
    Y[5]      OBJ       -10
    Y[5]      ULC[0]    63
    Y[5]      ULC[1]    92
    Y[5]      ULC[2]    28
    Y[5]      ULC[3]    2
    Y[5]      ULC[4]    37
    Y[5]      LLC[0]    32
    Y[5]      LLC[1]    17
    Y[5]      LLC[2]    72
    Y[5]      LLC[3]    20
    Y[5]      LLC[4]    7
    Y[6]      OBJ       11
    Y[6]      ULC[0]    50
    Y[6]      ULC[1]    16
    Y[6]      ULC[2]    67
    Y[6]      ULC[3]    52
    Y[6]      ULC[4]    63
    Y[6]      LLC[0]    46
    Y[6]      LLC[1]    12
    Y[6]      LLC[2]    68
    Y[6]      LLC[3]    12
    Y[6]      LLC[4]    9
    Y[7]      OBJ       -2
    Y[7]      ULC[0]    67
    Y[7]      ULC[1]    5
    Y[7]      ULC[2]    83
    Y[7]      ULC[3]    67
    Y[7]      ULC[4]    82
    Y[7]      LLC[0]    95
    Y[7]      LLC[1]    7
    Y[7]      LLC[2]    45
    Y[7]      LLC[3]    4
    Y[7]      LLC[4]    85
    Y[8]      OBJ       -27
    Y[8]      ULC[0]    14
    Y[8]      ULC[1]    7
    Y[8]      ULC[2]    71
    Y[8]      ULC[3]    44
    Y[8]      ULC[4]    49
    Y[8]      LLC[0]    37
    Y[8]      LLC[1]    28
    Y[8]      LLC[2]    34
    Y[8]      LLC[3]    70
    Y[8]      LLC[4]    12
    Y[9]      OBJ       -5
    Y[9]      ULC[0]    81
    Y[9]      ULC[1]    48
    Y[9]      ULC[2]    57
    Y[9]      ULC[3]    37
    Y[9]      ULC[4]    78
    Y[9]      LLC[0]    9
    Y[9]      LLC[1]    25
    Y[9]      LLC[2]    50
    Y[9]      LLC[3]    77
    Y[9]      LLC[4]    40
    MARKER    'MARKER'                 'INTEND'
RHS
    RHS1      ULC[0]    851
    RHS1      ULC[1]    603
    RHS1      ULC[2]    768
    RHS1      ULC[3]    867
    RHS1      ULC[4]    792
    RHS1      LLC[0]    528
    RHS1      LLC[1]    625
    RHS1      LLC[2]    558
    RHS1      LLC[3]    923
    RHS1      LLC[4]    809
BOUNDS
 BV BND1      X[0]    
 BV BND1      X[1]    
 BV BND1      X[2]    
 BV BND1      X[3]    
 BV BND1      X[4]    
 BV BND1      X[5]    
 BV BND1      X[6]    
 BV BND1      X[7]    
 BV BND1      X[8]    
 BV BND1      X[9]    
 BV BND1      Y[0]    
 BV BND1      Y[1]    
 BV BND1      Y[2]    
 BV BND1      Y[3]    
 BV BND1      Y[4]    
 BV BND1      Y[5]    
 BV BND1      Y[6]    
 BV BND1      Y[7]    
 BV BND1      Y[8]    
 BV BND1      Y[9]    
ENDATA
